c Random generated cnf formula, satisfiable: false
p cnf 10 50
2 5 -6 0
7 -9 1 0
7 -4 8 0
4 7 3 0
-10 2 8 0
3 -9 -8 0
3 -9 5 0
-4 -9 -1 0
5 4 -8 0
-10 8 -2 0
-3 5 -1 0
4 -8 -1 0
-9 -3 7 0
7 -8 -4 0
8 -6 10 0
-9 1 -10 0
-1 6 10 0
-2 9 -6 0
5 -2 -9 0
6 4 -10 0
5 8 -7 0
6 -10 -5 0
10 1 -5 0
-3 6 1 0
2 9 10 0
10 7 -4 0
7 5 -4 0
9 3 6 0
-6 -1 2 0
4 1 3 0
-8 2 -3 0
-5 4 -9 0
6 2 -7 0
-1 9 -7 0
-6 -1 -2 0
3 7 1 0
10 -7 -5 0
-3 -1 9 0
-10 9 -1 0
-6 -2 -9 0
-5 -7 4 0
3 4 -8 0
-4 -1 -5 0
7 -6 4 0
-3 7 -5 0
5 8 6 0
-10 -7 -9 0
-1 -6 -3 0
2 -6 3 0
-8 3 6 0
